(set-info :smt-lib-version 2.6)
(set-logic QF_LIA)
(set-info :source |
show equivalence of the following terms:
(((4 * v2 + 8 * v3) + (16 * v4 + 32 * v5)) + ((64 * v6 + 128 * v7) + (256 * v8 + (1 * v0 + 2 * v1))))

v0 + 2 * (v1 + 2 * (v2 + 2 * (v3 + 2 * (v4 + 2 * (v5 + 2 * (v6 + 2 * (v7 + 2 * (v8))))))))

in arithmetic modulo 2exp12
STATUS: unsat

generated by: Alberto Griggio <alberto.griggio@disi.unitn.it>
|)
(set-info :category "crafted")
(set-info :status unsat)
(declare-fun v0 () Int)
(declare-fun v1 () Int)
(declare-fun v2 () Int)
(declare-fun v3 () Int)
(declare-fun v4 () Int)
(declare-fun v5 () Int)
(declare-fun v6 () Int)
(declare-fun v7 () Int)
(declare-fun v8 () Int)
(declare-fun o_0 () Int)
(declare-fun o_1 () Int)
(declare-fun s_4 () Int)
(declare-fun o_2 () Int)
(declare-fun s_5 () Int)
(declare-fun s_6 () Int)
(declare-fun o_3 () Int)
(declare-fun s_7 () Int)
(declare-fun o_4 () Int)
(declare-fun o_5 () Int)
(declare-fun o_6 () Int)
(declare-fun o_7 () Int)
(declare-fun o_8 () Int)
(declare-fun o_9 () Int)
(declare-fun o_10 () Int)
(declare-fun o_11 () Int)
(declare-fun s_12 () Int)
(declare-fun o_12 () Int)
(declare-fun s_13 () Int)
(declare-fun o_13 () Int)
(declare-fun s_14 () Int)
(declare-fun o_14 () Int)
(declare-fun s_15 () Int)
(declare-fun o_15 () Int)
(assert (let ((?v_0 (* v8 2))) (let ((?v_2 (< ?v_0 4096)) (?v_3 (< ?v_0 8192))) (let ((?v_60 (+ (ite ?v_2 ?v_0 (ite ?v_3 (- ?v_0 4096) (- ?v_0 8192))) v7))) (let ((?v_61 (- ?v_60 (* o_8 4096))) (?v_70 (* v8 256))) (let ((?v_71 (- ?v_70 (* s_7 4096))) (?v_20 (* v1 2))) (let ((?v_84 (+ (ite (< ?v_20 4096) ?v_20 (ite (< ?v_20 8192) (- ?v_20 4096) (- ?v_20 8192))) v0))) (let ((?v_85 (- ?v_84 (* o_0 4096)))) (let ((?v_68 (+ ?v_71 ?v_85))) (let ((?v_69 (- ?v_68 (* o_4 4096))) (?v_74 (* v7 128))) (let ((?v_75 (- ?v_74 (* s_6 4096))) (?v_76 (* v6 64))) (let ((?v_77 (- ?v_76 (* s_5 4096)))) (let ((?v_72 (+ ?v_75 ?v_77))) (let ((?v_73 (- ?v_72 (* o_3 4096)))) (let ((?v_64 (+ ?v_69 ?v_73))) (let ((?v_65 (- ?v_64 (* o_6 4096))) (?v_80 (* v5 32))) (let ((?v_81 (- ?v_80 (* s_4 4096))) (?v_21 (* v4 16))) (let ((?v_78 (+ ?v_81 (ite (< ?v_21 4096) ?v_21 (ite (< ?v_21 8192) (- ?v_21 4096) (ite (< ?v_21 12288) (- ?v_21 8192) (ite (< ?v_21 16384) (- ?v_21 12288) (ite (< ?v_21 20480) (- ?v_21 16384) (ite (< ?v_21 24576) (- ?v_21 20480) (ite (< ?v_21 28672) (- ?v_21 24576) (ite (< ?v_21 32768) (- ?v_21 28672) (ite (< ?v_21 36864) (- ?v_21 32768) (ite (< ?v_21 40960) (- ?v_21 36864) (ite (< ?v_21 45056) (- ?v_21 40960) (ite (< ?v_21 49152) (- ?v_21 45056) (ite (< ?v_21 53248) (- ?v_21 49152) (ite (< ?v_21 57344) (- ?v_21 53248) (ite (< ?v_21 61440) (- ?v_21 57344) (ite (< ?v_21 65536) (- ?v_21 61440) (- ?v_21 65536)))))))))))))))))))) (let ((?v_79 (- ?v_78 (* o_2 4096))) (?v_22 (* v3 8)) (?v_23 (* v2 4))) (let ((?v_82 (+ (ite (< ?v_22 4096) ?v_22 (ite (< ?v_22 8192) (- ?v_22 4096) (ite (< ?v_22 12288) (- ?v_22 8192) (ite (< ?v_22 16384) (- ?v_22 12288) (ite (< ?v_22 20480) (- ?v_22 16384) (ite (< ?v_22 24576) (- ?v_22 20480) (ite (< ?v_22 28672) (- ?v_22 24576) (ite (< ?v_22 32768) (- ?v_22 28672) (- ?v_22 32768))))))))) (ite (< ?v_23 4096) ?v_23 (ite (< ?v_23 8192) (- ?v_23 4096) (ite (< ?v_23 12288) (- ?v_23 8192) (ite (< ?v_23 16384) (- ?v_23 12288) (- ?v_23 16384)))))))) (let ((?v_83 (- ?v_82 (* o_1 4096)))) (let ((?v_66 (+ ?v_79 ?v_83))) (let ((?v_67 (- ?v_66 (* o_5 4096)))) (let ((?v_62 (+ ?v_65 ?v_67))) (let ((?v_63 (- ?v_62 (* o_7 4096))) (?v_1 (* 4 v8))) (let ((?v_5 (- (+ (ite ?v_2 ?v_1 (ite ?v_3 (- ?v_1 8192) (- ?v_1 16384))) (* 2 v7)) (* 8192 o_8)))) (let ((?v_7 (< ?v_5 4096)) (?v_9 (< ?v_5 8192))) (let ((?v_58 (+ (ite ?v_7 ?v_5 (ite ?v_9 (- ?v_5 4096) (- ?v_5 8192))) v6))) (let ((?v_59 (- ?v_58 (* o_9 4096))) (?v_4 (* 8 v8))) (let ((?v_6 (- (+ (ite ?v_2 ?v_4 (ite ?v_3 (- ?v_4 16384) (- ?v_4 32768))) (* 4 v7)) (* 16384 o_8)))) (let ((?v_11 (- (+ (ite ?v_7 ?v_6 (ite ?v_9 (- ?v_6 8192) (- ?v_6 16384))) (* 2 v6)) (* 8192 o_9)))) (let ((?v_13 (< ?v_11 4096)) (?v_16 (< ?v_11 8192))) (let ((?v_56 (+ (ite ?v_13 ?v_11 (ite ?v_16 (- ?v_11 4096) (- ?v_11 8192))) v5))) (let ((?v_57 (- ?v_56 (* o_10 4096))) (?v_8 (* 16 v8))) (let ((?v_10 (- (+ (ite ?v_2 ?v_8 (ite ?v_3 (- ?v_8 32768) (- ?v_8 65536))) (* 8 v7)) (* 32768 o_8)))) (let ((?v_12 (- (+ (ite ?v_7 ?v_10 (ite ?v_9 (- ?v_10 16384) (- ?v_10 32768))) (* 4 v6)) (* 16384 o_9)))) (let ((?v_18 (- (+ (ite ?v_13 ?v_12 (ite ?v_16 (- ?v_12 8192) (- ?v_12 16384))) (* 2 v5)) (* 8192 o_10)))) (let ((?v_28 (< ?v_18 4096)) (?v_32 (< ?v_18 8192))) (let ((?v_54 (+ (ite ?v_28 ?v_18 (ite ?v_32 (- ?v_18 4096) (- ?v_18 8192))) v4))) (let ((?v_55 (- ?v_54 (* o_11 4096))) (?v_46 (* 32 v8))) (let ((?v_47 (- (+ (ite ?v_2 ?v_46 (ite ?v_3 (- ?v_46 65536) (- ?v_46 131072))) (* 16 v7)) (* 65536 o_8)))) (let ((?v_48 (- (+ (ite ?v_7 ?v_47 (ite ?v_9 (- ?v_47 32768) (- ?v_47 65536))) (* 8 v6)) (* 32768 o_9)))) (let ((?v_49 (- (+ (ite ?v_13 ?v_48 (ite ?v_16 (- ?v_48 16384) (- ?v_48 32768))) (* 4 v5)) (* 16384 o_10)))) (let ((?v_52 (- (+ (ite ?v_28 ?v_49 (ite ?v_32 (- ?v_49 8192) (- ?v_49 16384))) (* 2 v4)) (* 8192 o_11)))) (let ((?v_53 (- ?v_52 (* s_12 4096)))) (let ((?v_50 (+ ?v_53 v3))) (let ((?v_51 (- ?v_50 (* o_12 4096))) (?v_38 (* 64 v8))) (let ((?v_39 (- (+ (ite ?v_2 ?v_38 (ite ?v_3 (- ?v_38 131072) (- ?v_38 262144))) (* 32 v7)) (* 131072 o_8)))) (let ((?v_40 (- (+ (ite ?v_7 ?v_39 (ite ?v_9 (- ?v_39 65536) (- ?v_39 131072))) (* 16 v6)) (* 65536 o_9)))) (let ((?v_41 (- (+ (ite ?v_13 ?v_40 (ite ?v_16 (- ?v_40 32768) (- ?v_40 65536))) (* 8 v5)) (* 32768 o_10)))) (let ((?v_44 (- (+ (- (- (+ (ite ?v_28 ?v_41 (ite ?v_32 (- ?v_41 16384) (- ?v_41 32768))) (* 4 v4)) (* 16384 o_11)) (* 8192 s_12)) (* 2 v3)) (* 8192 o_12)))) (let ((?v_45 (- ?v_44 (* s_13 4096)))) (let ((?v_42 (+ ?v_45 v2))) (let ((?v_43 (- ?v_42 (* o_13 4096))) (?v_29 (* 128 v8))) (let ((?v_30 (- (+ (ite ?v_2 ?v_29 (ite ?v_3 (- ?v_29 262144) (- ?v_29 524288))) (* 64 v7)) (* 262144 o_8)))) (let ((?v_31 (- (+ (ite ?v_7 ?v_30 (ite ?v_9 (- ?v_30 131072) (- ?v_30 262144))) (* 32 v6)) (* 131072 o_9)))) (let ((?v_33 (- (+ (ite ?v_13 ?v_31 (ite ?v_16 (- ?v_31 65536) (- ?v_31 131072))) (* 16 v5)) (* 65536 o_10)))) (let ((?v_36 (- (+ (- (- (+ (- (- (+ (ite ?v_28 ?v_33 (ite ?v_32 (- ?v_33 32768) (- ?v_33 65536))) (* 8 v4)) (* 32768 o_11)) (* 16384 s_12)) (* 4 v3)) (* 16384 o_12)) (* 8192 s_13)) (* 2 v2)) (* 8192 o_13)))) (let ((?v_37 (- ?v_36 (* s_14 4096)))) (let ((?v_34 (+ ?v_37 v1))) (let ((?v_35 (- ?v_34 (* o_14 4096))) (?v_14 (* 256 v8))) (let ((?v_15 (- (+ (ite ?v_2 ?v_14 (ite ?v_3 (- ?v_14 524288) (- ?v_14 1048576))) (* 128 v7)) (* 524288 o_8)))) (let ((?v_17 (- (+ (ite ?v_7 ?v_15 (ite ?v_9 (- ?v_15 262144) (- ?v_15 524288))) (* 64 v6)) (* 262144 o_9)))) (let ((?v_19 (- (+ (ite ?v_13 ?v_17 (ite ?v_16 (- ?v_17 131072) (- ?v_17 262144))) (* 32 v5)) (* 131072 o_10)))) (let ((?v_26 (- (+ (- (- (+ (- (- (+ (- (- (+ (ite ?v_28 ?v_19 (ite ?v_32 (- ?v_19 65536) (- ?v_19 131072))) (* 16 v4)) (* 65536 o_11)) (* 32768 s_12)) (* 8 v3)) (* 32768 o_12)) (* 16384 s_13)) (* 4 v2)) (* 16384 o_13)) (* 8192 s_14)) (* 2 v1)) (* 8192 o_14)))) (let ((?v_27 (- ?v_26 (* s_15 4096)))) (let ((?v_24 (+ ?v_27 v0))) (let ((?v_25 (- ?v_24 (* o_15 4096)))) (and (not (= ?v_25 ?v_63)) (and (= (> ?v_24 4096) (= o_15 1)) (and (and (< ?v_25 4096) (<= 0 ?v_25)) (and (and (<= o_15 1) (<= 0 o_15)) (and (= (> ?v_26 4096) (>= s_15 1)) (and (and (< ?v_27 4096) (<= 0 ?v_27)) (and (and (< s_15 2) (<= 0 s_15)) (and (= (> ?v_34 4096) (= o_14 1)) (and (and (< ?v_35 4096) (<= 0 ?v_35)) (and (and (<= o_14 1) (<= 0 o_14)) (and (= (> ?v_36 4096) (>= s_14 1)) (and (and (< ?v_37 4096) (<= 0 ?v_37)) (and (and (< s_14 2) (<= 0 s_14)) (and (= (> ?v_42 4096) (= o_13 1)) (and (and (< ?v_43 4096) (<= 0 ?v_43)) (and (and (<= o_13 1) (<= 0 o_13)) (and (= (> ?v_44 4096) (>= s_13 1)) (and (and (< ?v_45 4096) (<= 0 ?v_45)) (and (and (< s_13 2) (<= 0 s_13)) (and (= (> ?v_50 4096) (= o_12 1)) (and (and (< ?v_51 4096) (<= 0 ?v_51)) (and (and (<= o_12 1) (<= 0 o_12)) (and (= (> ?v_52 4096) (>= s_12 1)) (and (and (< ?v_53 4096) (<= 0 ?v_53)) (and (and (< s_12 2) (<= 0 s_12)) (and (= (> ?v_54 4096) (= o_11 1)) (and (and (< ?v_55 4096) (<= 0 ?v_55)) (and (and (<= o_11 1) (<= 0 o_11)) (and (= (> ?v_56 4096) (= o_10 1)) (and (and (< ?v_57 4096) (<= 0 ?v_57)) (and (and (<= o_10 1) (<= 0 o_10)) (and (= (> ?v_58 4096) (= o_9 1)) (and (and (< ?v_59 4096) (<= 0 ?v_59)) (and (and (<= o_9 1) (<= 0 o_9)) (and (= (> ?v_60 4096) (= o_8 1)) (and (and (< ?v_61 4096) (<= 0 ?v_61)) (and (and (<= o_8 1) (<= 0 o_8)) (and (= (> ?v_62 4096) (= o_7 1)) (and (and (< ?v_63 4096) (<= 0 ?v_63)) (and (and (<= o_7 1) (<= 0 o_7)) (and (= (> ?v_64 4096) (= o_6 1)) (and (and (< ?v_65 4096) (<= 0 ?v_65)) (and (and (<= o_6 1) (<= 0 o_6)) (and (= (> ?v_66 4096) (= o_5 1)) (and (and (< ?v_67 4096) (<= 0 ?v_67)) (and (and (<= o_5 1) (<= 0 o_5)) (and (= (> ?v_68 4096) (= o_4 1)) (and (and (< ?v_69 4096) (<= 0 ?v_69)) (and (and (<= o_4 1) (<= 0 o_4)) (and (= (> ?v_70 4096) (>= s_7 1)) (and (and (< ?v_71 4096) (<= 0 ?v_71)) (and (and (< s_7 256) (<= 0 s_7)) (and (= (> ?v_72 4096) (= o_3 1)) (and (and (< ?v_73 4096) (<= 0 ?v_73)) (and (and (<= o_3 1) (<= 0 o_3)) (and (= (> ?v_74 4096) (>= s_6 1)) (and (and (< ?v_75 4096) (<= 0 ?v_75)) (and (and (< s_6 128) (<= 0 s_6)) (and (= (> ?v_76 4096) (>= s_5 1)) (and (and (< ?v_77 4096) (<= 0 ?v_77)) (and (and (< s_5 64) (<= 0 s_5)) (and (= (> ?v_78 4096) (= o_2 1)) (and (and (< ?v_79 4096) (<= 0 ?v_79)) (and (and (<= o_2 1) (<= 0 o_2)) (and (= (> ?v_80 4096) (>= s_4 1)) (and (and (< ?v_81 4096) (<= 0 ?v_81)) (and (and (< s_4 32) (<= 0 s_4)) (and (= (> ?v_82 4096) (= o_1 1)) (and (and (< ?v_83 4096) (<= 0 ?v_83)) (and (and (<= o_1 1) (<= 0 o_1)) (and (= (> ?v_84 4096) (= o_0 1)) (and (and (< ?v_85 4096) (<= 0 ?v_85)) (and (and (<= o_0 1) (<= 0 o_0)) (and (and (< v8 4096) (>= v8 0)) (and (and (< v7 4096) (>= v7 0)) (and (and (< v6 4096) (>= v6 0)) (and (and (< v5 4096) (>= v5 0)) (and (and (< v4 4096) (>= v4 0)) (and (and (< v3 4096) (>= v3 0)) (and (and (< v2 4096) (>= v2 0)) (and (and (< v1 4096) (>= v1 0)) (and (< v0 4096) (>= v0 0)))))))))))))))))))))))))))))))))))))))))))))))))))))))))))))))))))))))))))))))))))))))))))))))))))))))))))))))))))))))))))))))))))))))))))))))))))))))
(check-sat)
(exit)
